# Objective value = 6.9338600000000270e+03
I_0_0 676
I_0_1 743
I_0_2 8.3200000000000466e+02
I_0_3 8.3900000000000466e+02
I_0_4 7.3100000000000284e+02
I_0_5 7.2399999999999864e+02
I_0_6 1.0380000000000014e+03
I_1_0 53
I_1_1 53
I_1_2 0
I_1_3 53
I_1_4 53
I_1_5 53
I_1_6 0
I_2_0 67
I_2_1 0
I_2_2 67
I_2_3 0
I_2_4 67
I_2_5 67
I_2_6 0
I_3_0 91
I_3_1 91
I_3_2 91
I_3_3 91
I_3_4 91
I_3_5 9.1000000000008086e+01
I_3_6 -1.1105299700469075e-11
I_4_0 55
I_4_1 55
I_4_2 0
I_4_3 55
I_4_4 -4.4053649617126212e-12
I_4_5 5.5000000000000007e+01
I_4_6 0
I_5_0 96
I_5_1 96
I_5_2 4.7999999999995318e+01
I_5_3 -4.6895820560166612e-12
I_5_4 9.6000000000001492e+01
I_5_5 4.7999999999993271e+01
I_5_6 3.5046345455755135e-12
q_1_0_0 53
q_1_0_1 0
q_1_0_2 106
q_1_0_3 53
q_1_0_4 53
q_1_0_5 0
q_1_1_0 0
q_1_1_1 0
q_1_1_2 0
q_1_1_3 0
q_1_1_4 0
q_1_1_5 0
q_1_2_0 0
q_1_2_1 0
q_1_2_2 0
q_1_2_3 0
q_1_2_4 0
q_1_2_5 0
q_2_0_0 0
q_2_0_1 134
q_2_0_2 0
q_2_0_3 0
q_2_0_4 67
q_2_0_5 0
q_2_1_0 0
q_2_1_1 0
q_2_1_2 0
q_2_1_3 134
q_2_1_4 0
q_2_1_5 0
q_2_2_0 0
q_2_2_1 0
q_2_2_2 0
q_2_2_3 0
q_2_2_4 0
q_2_2_5 0
q_3_0_0 0
q_3_0_1 0
q_3_0_2 0
q_3_0_3 91
q_3_0_4 0
q_3_0_5 -1.9191276033419015e-11
q_3_1_0 91
q_3_1_1 91
q_3_1_2 0
q_3_1_3 0
q_3_1_4 -4.3261358807143471e-12
q_3_1_5 0
q_3_2_0 0
q_3_2_1 0
q_3_2_2 91
q_3_2_3 0
q_3_2_4 91.0000000000124
q_3_2_5 0
q_4_0_0 55
q_4_0_1 0
q_4_0_2 0
q_4_0_3 0
q_4_0_4 0
q_4_0_5 0
q_4_1_0 0
q_4_1_1 0
q_4_1_2 1.1000000000000001e+02
q_4_1_3 0
q_4_1_4 1.1000000000000441e+02
q_4_1_5 0
q_4_2_0 0
q_4_2_1 0
q_4_2_2 0
q_4_2_3 -4.3987491542884605e-12
q_4_2_4 0
q_4_2_5 0
q_5_0_0 48
q_5_0_1 0
q_5_0_2 0
q_5_0_3 0
q_5_0_4 0
q_5_0_5 2.1978745675338118e-11
q_5_1_0 0
q_5_1_1 0
q_5_1_2 0
q_5_1_3 0
q_5_1_4 -8.2322595618769961e-12
q_5_1_5 -5.6199405143368740e-12
q_5_2_0 0
q_5_2_1 -4.6895820560166612e-12
q_5_2_2 0
q_5_2_3 1.4400000000000620e+02
q_5_2_4 0
q_5_2_5 0
y_0_0_0 1
y_0_0_1 1
y_0_0_2 1
y_0_0_3 1
y_0_0_4 1
y_0_0_5 0
y_0_1_0 1
y_0_1_1 1
y_0_1_2 1
y_0_1_3 1
y_0_1_4 1
y_0_1_5 0
y_0_2_0 0
y_0_2_1 -4.8849813083506881e-14
y_0_2_2 1
y_0_2_3 1.0000000000000311e+00
y_0_2_4 1.0000000000001366e+00
y_0_2_5 0
y_1_0_0 1
y_1_0_1 0
y_1_0_2 1
y_1_0_3 1
y_1_0_4 1
y_1_0_5 0
y_1_1_0 0
y_1_1_1 0
y_1_1_2 0
y_1_1_3 0
y_1_1_4 0
y_1_1_5 0
y_1_2_0 0
y_1_2_1 0
y_1_2_2 0
y_1_2_3 0
y_1_2_4 0
y_1_2_5 0
y_2_0_0 0
y_2_0_1 1
y_2_0_2 0
y_2_0_3 0
y_2_0_4 1
y_2_0_5 0
y_2_1_0 0
y_2_1_1 0
y_2_1_2 0
y_2_1_3 1
y_2_1_4 0
y_2_1_5 0
y_2_2_0 0
y_2_2_1 0
y_2_2_2 0
y_2_2_3 0
y_2_2_4 0
y_2_2_5 0
y_3_0_0 0
y_3_0_1 0
y_3_0_2 0
y_3_0_3 1
y_3_0_4 0
y_3_0_5 -1.2223742696445232e-13
y_3_1_0 1
y_3_1_1 1
y_3_1_2 0
y_3_1_3 0
y_3_1_4 -9.2045444270518008e-14
y_3_1_5 0
y_3_2_0 0
y_3_2_1 0
y_3_2_2 1
y_3_2_3 0
y_3_2_4 1.0000000000001366e+00
y_3_2_5 0
y_4_0_0 1
y_4_0_1 0
y_4_0_2 0
y_4_0_3 0
y_4_0_4 0
y_4_0_5 0
y_4_1_0 0
y_4_1_1 0
y_4_1_2 1
y_4_1_3 0
y_4_1_4 1
y_4_1_5 0
y_4_2_0 0
y_4_2_1 0
y_4_2_2 0
y_4_2_3 -4.0355496828334332e-14
y_4_2_4 0
y_4_2_5 0
y_5_0_0 1
y_5_0_1 0
y_5_0_2 0
y_5_0_3 0
y_5_0_4 0
y_5_0_5 1.58837359324905e-13
y_5_1_0 0
y_5_1_1 0
y_5_1_2 0
y_5_1_3 0
y_5_1_4 -6.7132937490867078e-14
y_5_1_5 -3.9027364682894955e-14
y_5_2_0 0
y_5_2_1 0
y_5_2_2 0
y_5_2_3 1.0000000000000311e+00
y_5_2_4 0
y_5_2_5 -8.33192126307973e-14
x_0_1_0_0 1
x_0_1_0_1 0
x_0_1_0_2 2
x_0_1_0_3 1
x_0_1_0_4 1
x_0_1_0_5 0
x_0_1_1_0 0
x_0_1_1_1 0
x_0_1_1_2 0
x_0_1_1_3 0
x_0_1_1_4 0
x_0_1_1_5 0
x_0_1_2_0 0
x_0_1_2_1 0
x_0_1_2_2 0
x_0_1_2_3 0
x_0_1_2_4 0
x_0_1_2_5 0
x_0_2_0_0 0
x_0_2_0_1 2
x_0_2_0_2 0
x_0_2_0_3 0
x_0_2_0_4 1
x_0_2_0_5 0
x_0_2_1_0 0
x_0_2_1_1 0
x_0_2_1_2 0
x_0_2_1_3 2
x_0_2_1_4 -1.8395578075562293e-13
x_0_2_1_5 0
x_0_2_2_0 0
x_0_2_2_1 0
x_0_2_2_2 0
x_0_2_2_3 0
x_0_2_2_4 0
x_0_2_2_5 0
x_0_3_0_0 0
x_0_3_0_1 0
x_0_3_0_2 0
x_0_3_0_3 1
x_0_3_0_4 0
x_0_3_0_5 -2.4447485392890464e-13
x_0_3_1_0 2
x_0_3_1_1 2
x_0_3_1_2 0
x_0_3_1_3 0
x_0_3_1_4 0
x_0_3_1_5 0
x_0_3_2_0 0
x_0_3_2_1 0
x_0_3_2_2 2
x_0_3_2_3 0
x_0_3_2_4 2.0000000000002731e+00
x_0_3_2_5 0
x_0_4_0_0 0
x_0_4_0_1 0
x_0_4_0_2 0
x_0_4_0_3 0
x_0_4_0_4 0
x_0_4_0_5 0
x_0_4_1_0 0
x_0_4_1_1 0
x_0_4_1_2 2
x_0_4_1_3 0
x_0_4_1_4 2.0000000000003428e+00
x_0_4_1_5 0
x_0_4_2_0 0
x_0_4_2_1 0
x_0_4_2_2 0
x_0_4_2_3 0
x_0_4_2_4 0
x_0_4_2_5 1.6663842526159459e-13
x_0_5_0_0 1
x_0_5_0_1 0
x_0_5_0_2 0
x_0_5_0_3 0
x_0_5_0_4 0
x_0_5_0_5 3.1767471864981e-13
x_0_5_1_0 0
x_0_5_1_1 0
x_0_5_1_2 0
x_0_5_1_3 0
x_0_5_1_4 -1.5898393712632242e-13
x_0_5_1_5 0
x_0_5_2_0 0
x_0_5_2_1 0
x_0_5_2_2 0
x_0_5_2_3 2.0000000000000622e+00
x_0_5_2_4 0
x_0_5_2_5 0
x_1_2_0_0 0
x_1_2_0_1 0
x_1_2_0_2 0
x_1_2_0_3 0
x_1_2_0_4 1
x_1_2_0_5 0
x_1_2_1_0 0
x_1_2_1_1 0
x_1_2_1_2 0
x_1_2_1_3 0
x_1_2_1_4 0
x_1_2_1_5 0
x_1_2_2_0 0
x_1_2_2_1 0
x_1_2_2_2 0
x_1_2_2_3 0
x_1_2_2_4 0
x_1_2_2_5 0
x_1_3_0_0 0
x_1_3_0_1 0
x_1_3_0_2 0
x_1_3_0_3 1
x_1_3_0_4 0
x_1_3_0_5 0
x_1_3_1_0 0
x_1_3_1_1 0
x_1_3_1_2 0
x_1_3_1_3 0
x_1_3_1_4 0
x_1_3_1_5 0
x_1_3_2_0 0
x_1_3_2_1 0
x_1_3_2_2 0
x_1_3_2_3 0
x_1_3_2_4 0
x_1_3_2_5 0
x_1_4_0_0 1
x_1_4_0_1 0
x_1_4_0_2 0
x_1_4_0_3 0
x_1_4_0_4 0
x_1_4_0_5 0
x_1_4_1_0 0
x_1_4_1_1 0
x_1_4_1_2 0
x_1_4_1_3 0
x_1_4_1_4 0
x_1_4_1_5 0
x_1_4_2_0 0
x_1_4_2_1 0
x_1_4_2_2 0
x_1_4_2_3 0
x_1_4_2_4 0
x_1_4_2_5 0
x_1_5_0_0 0
x_1_5_0_1 0
x_1_5_0_2 0
x_1_5_0_3 0
x_1_5_0_4 0
x_1_5_0_5 0
x_1_5_1_0 0
x_1_5_1_1 0
x_1_5_1_2 0
x_1_5_1_3 0
x_1_5_1_4 0
x_1_5_1_5 0
x_1_5_2_0 0
x_1_5_2_1 0
x_1_5_2_2 0
x_1_5_2_3 0
x_1_5_2_4 0
x_1_5_2_5 0
x_2_3_0_0 0
x_2_3_0_1 0
x_2_3_0_2 0
x_2_3_0_3 0
x_2_3_0_4 0
x_2_3_0_5 0
x_2_3_1_0 0
x_2_3_1_1 0
x_2_3_1_2 0
x_2_3_1_3 0
x_2_3_1_4 0
x_2_3_1_5 0
x_2_3_2_0 0
x_2_3_2_1 0
x_2_3_2_2 0
x_2_3_2_3 0
x_2_3_2_4 0
x_2_3_2_5 0
x_2_4_0_0 0
x_2_4_0_1 0
x_2_4_0_2 0
x_2_4_0_3 0
x_2_4_0_4 0
x_2_4_0_5 0
x_2_4_1_0 0
x_2_4_1_1 0
x_2_4_1_2 0
x_2_4_1_3 0
x_2_4_1_4 0
x_2_4_1_5 0
x_2_4_2_0 0
x_2_4_2_1 0
x_2_4_2_2 0
x_2_4_2_3 0
x_2_4_2_4 0
x_2_4_2_5 0
x_2_5_0_0 0
x_2_5_0_1 0
x_2_5_0_2 0
x_2_5_0_3 0
x_2_5_0_4 0
x_2_5_0_5 0
x_2_5_1_0 0
x_2_5_1_1 0
x_2_5_1_2 0
x_2_5_1_3 0
x_2_5_1_4 1.8395578075562293e-13
x_2_5_1_5 0
x_2_5_2_0 0
x_2_5_2_1 0
x_2_5_2_2 0
x_2_5_2_3 0
x_2_5_2_4 0
x_2_5_2_5 0
x_3_4_0_0 0
x_3_4_0_1 0
x_3_4_0_2 0
x_3_4_0_3 0
x_3_4_0_4 0
x_3_4_0_5 0
x_3_4_1_0 0
x_3_4_1_1 0
x_3_4_1_2 0
x_3_4_1_3 0
x_3_4_1_4 -1.8409088854103602e-13
x_3_4_1_5 0
x_3_4_2_0 0
x_3_4_2_1 0
x_3_4_2_2 0
x_3_4_2_3 0
x_3_4_2_4 0
x_3_4_2_5 0
x_3_5_0_0 0
x_3_5_0_1 0
x_3_5_0_2 0
x_3_5_0_3 0
x_3_5_0_4 0
x_3_5_0_5 0
x_3_5_1_0 0
x_3_5_1_1 0
x_3_5_1_2 0
x_3_5_1_3 0
x_3_5_1_4 0
x_3_5_1_5 0
x_3_5_2_0 0
x_3_5_2_1 0
x_3_5_2_2 0
x_3_5_2_3 0
x_3_5_2_4 0
x_3_5_2_5 0
x_4_5_0_0 1
x_4_5_0_1 0
x_4_5_0_2 0
x_4_5_0_3 0
x_4_5_0_4 0
x_4_5_0_5 0
x_4_5_1_0 0
x_4_5_1_1 0
x_4_5_1_2 0
x_4_5_1_3 0
x_4_5_1_4 -1.5898393712632242e-13
x_4_5_1_5 0
x_4_5_2_0 0
x_4_5_2_1 0
x_4_5_2_2 0
x_4_5_2_3 0
x_4_5_2_4 0
x_4_5_2_5 -1.6663842526159459e-13
